2047
2209
1212
2601
1366
1709
3138
2375
2946
1494
1235
1724
1529
3416
945
1143
3191
842
462
2029
2033
1055
2571
2594
2840
3303
3282
1829
1308
2767
2152
185
1563
1410
1545
1726
3071
571
1071
3875
663
1776
2261
1033
2542
3094
3480
1645
1999
1199
1201
2506
1287
825
2176
1299
1256
1372
2008
479
3244
2816
247
2207
3065
1080
2290
2465
1182
2763
2242
3081
1404
3244
2836
2347
2024
3399
2564
678

114786
109398
25465
118661
47232

3259
3106
723
3369
1341

7078.8

81
77
18
84
34
71
113
90
135
42
31
66
29
137
12
43
147
31
11
80
76
20
119
112
120
130
137
68
62
114
62
3
77
64
62
68
112
15
13
150
8
39
89
4
78
149
129
78
95
29
52
116
23
25
104
57
37
56
74
16
119
96
5
67
131
14
90
122
43
124
86
122
22
137
98
107
91
130
92
30
